&FORCE_EVAL
  STRESS_TENSOR ANALYTICAL #NUMERICAL
  METHOD Fist
  &MM
    &FORCEFIELD
      PARMTYPE CHM
      PARM_FILE_NAME ../charmm.pot_ext
      DANNY T
      DANNY_CUTOFF 5.5
      &DANNY_PRINT HIGH
      &END DANNY_PRINT
      &DANNY_PRINT_FORCES HIGH
      &END DANNY_PRINT_FORCES
      &NONBONDED
        &LENNARD-JONES
          ATOMS HSI SIO
          EPSILON [eV] 0.0033587 #=sqrt(eps1*eps2)
          RCUT 10.0
          SIGMA 2.3163 #=2^(-1/6)*(sigma1+sigma2)
        &END LENNARD-JONES
        &LENNARD-JONES
          ATOMS HSI OSB
          EPSILON [eV] 0.0031267 #=sqrt(eps1*eps2)
          RCUT 10.0
          SIGMA 2.4607 #=2^(-1/6)*(sigma1+sigma2)
        &END LENNARD-JONES
        &LENNARD-JONES
          ATOMS HSI OSI
          EPSILON [kcalmol] 0.083645681299156144 #=sqrt(eps1*eps2)
          RCUT 10.0
          SIGMA 1.7768974933309067 #=2^(-1/6)*(sigma1+sigma2)
        &END LENNARD-JONES
        &LENNARD-JONES
          ATOMS HSI HSI
          EPSILON [eV] 0.0008672 #=sqrt(eps1*eps2)
          RCUT 10.0
          SIGMA 1.7818 #=2^(-1/6)*(sigma1+sigma2)
        &END LENNARD-JONES
        &LENNARD-JONES
          ATOMS OT SIO
          EPSILON [eV] 0.0092592 #=sqrt(eps1*eps2)
          RCUT 10.0
          SIGMA 3.0005 #=2^(-1/6)*(sigma1+sigma2)
        &END LENNARD-JONES
        &LENNARD-JONES
          ATOMS OT OSB
          EPSILON [eV] 0.0086198 #=sqrt(eps1*eps2)
          RCUT 10.0
          SIGMA 3.1449 #=2^(-1/6)*(sigma1+sigma2)
        &END LENNARD-JONES
        &LENNARD-JONES
          ATOMS OT OSI
          EPSILON [eV] 0.0065472 #=sqrt(eps1*eps2)
          RCUT 10.0
          SIGMA 3.0451 #=2^(-1/6)*(sigma1+sigma2)
        &END LENNARD-JONES
        &LENNARD-JONES
          ATOMS OT HSI
          EPSILON [kcalmol] 0.083645681299156144 #=sqrt(eps1*eps2)
          RCUT 10.0
          SIGMA 1.7752938756382539 #=2^(-1/6)*(sigma1+sigma2)
        &END LENNARD-JONES
        &LENNARD-JONES
          ATOMS HT SIO
          EPSILON [eV] 0.0041135 #=sqrt(eps1*eps2)
          RCUT 10.0
          SIGMA 2.0045 #=2^(-1/6)*(sigma1+sigma2)
        &END LENNARD-JONES
        &LENNARD-JONES
          ATOMS HT OSB
          EPSILON [eV] 0.0038295 #=sqrt(eps1*eps2)
          RCUT 10.0
          SIGMA 2.1488 #=2^(-1/6)*(sigma1+sigma2)
        &END LENNARD-JONES
        &LENNARD-JONES
          ATOMS HT OSI
          EPSILON [kcalmol] 0.083645681299156144 #=sqrt(eps1*eps2)
          RCUT 10.0
          SIGMA 1.7768974933309065 #=2^(-1/6)*(sigma1+sigma2)
        &END LENNARD-JONES
        &LENNARD-JONES
          ATOMS HT HSI
          EPSILON [kcalmol] 0.046 #=sqrt(eps1*eps2)
          RCUT 10.0
          SIGMA 0.40001352444501237 #=2^(-1/6)*(sigma1+sigma2)
        &END LENNARD-JONES
        &LENNARD-JONES
          ATOMS OSI SIO
          EPSILON 0.0
          RCUT 10.0
          SIGMA 0.0
        &END LENNARD-JONES
        &LENNARD-JONES
          ATOMS OSI OSB
          EPSILON 0.0
          RCUT 10.0
          SIGMA 0.0
        &END LENNARD-JONES
        &LENNARD-JONES
          ATOMS OSI OSI
          EPSILON 0.0
          RCUT 10.0
          SIGMA 0.0
        &END LENNARD-JONES
        &LENNARD-JONES
          ATOMS OSB SIO
          EPSILON 0.0
          RCUT 10.0
          SIGMA 0.0
        &END LENNARD-JONES
        &LENNARD-JONES
          ATOMS OSB OSB
          EPSILON 0.0
          RCUT 10.0
          SIGMA 0.0
        &END LENNARD-JONES
        &LENNARD-JONES
          ATOMS SIO SIO
          EPSILON 0.0
          RCUT 10.0
          SIGMA 0.0
        &END LENNARD-JONES
      &END NONBONDED
    &END FORCEFIELD
    &POISSON
      &EWALD
        EWALD_TYPE spme
        EWALD_ACCURACY 1.E-6
        ALPHA 0.35
        GMAX 61
      &END EWALD
    &END POISSON
  &END MM
  &SUBSYS
    &CELL
      A 32.616000 0.000000 0.000000
      B 0.000000 54.481000 0.000000
      C 0.000000 0.000000 32.616000
      PERIODIC XYZ
    &END CELL
#    &COORD
#    &END COORD
    &VELOCITY
      0.0001511013       -0.0000393276        0.0001794800
     -0.0009214388        0.0004878877        0.0000945559
      0.0012904711        0.0001145891       -0.0003483768
     -0.0002989684       -0.0001474772        0.0005001632
     -0.0001154381       -0.0002444444        0.0001143032
      0.0000361732        0.0000133597        0.0004906751
     -0.0001513739       -0.0000545239        0.0000892814
      0.0002349591        0.0003144703        0.0003150636
     -0.0001860906        0.0001302938       -0.0002008321
     -0.0000338638        0.0000323123       -0.0002184498
      0.0001530846       -0.0000387979       -0.0001613104
      0.0011303394       -0.0004155509       -0.0004800830
      0.0000250067        0.0002522901       -0.0002678561
     -0.0012422729       -0.0001837006        0.0005042554
     -0.0000298091       -0.0001489703        0.0002839887
     -0.0010969307       -0.0004183505        0.0007619910
      0.0001978823        0.0003948098        0.0002308961
     -0.0000967324        0.0001888296        0.0001200576
      0.0009431593       -0.0001450884        0.0000281580
     -0.0002009868        0.0003371007       -0.0000599473
     -0.0004796684       -0.0001742736       -0.0008424246
      0.0000146957        0.0007654705       -0.0002644043
      0.0000608604       -0.0005190604       -0.0001601464
      0.0005828676       -0.0005980342       -0.0011253100
     -0.0007246043        0.0007782853        0.0006695050
      0.0002354024        0.0001000001       -0.0003779756
      0.0003438567       -0.0000234803        0.0001889935
      0.0003019744       -0.0000948537        0.0017556680
     -0.0002866190        0.0001749668       -0.0000355924
     -0.0007013708       -0.0007903053        0.0001977946
     -0.0004440624        0.0002093125       -0.0015090439
     -0.0004010745       -0.0001496584       -0.0001795001
      0.0011834559       -0.0010374182        0.0003015516
      0.0001160690       -0.0004212474        0.0010220589
      0.0003656305        0.0004205059        0.0007735932
      0.0000385135        0.0001419122        0.0002110800
     -0.0000574944       -0.0001382424       -0.0000466815
      0.0000710325        0.0001054292        0.0001557007
      0.0000397902       -0.0000604899        0.0000995333
      0.0001820158        0.0002883644        0.0002016569
     -0.0001693966        0.0001638857        0.0001045697
     -0.0000711262       -0.0001941202        0.0002182220
      0.0000630430        0.0001781386       -0.0000506192
      0.0003091831        0.0000044003        0.0002021881
     -0.0001062504        0.0000188190       -0.0001530232
     -0.0000949623       -0.0001563758        0.0001506221
     -0.0002020583       -0.0000014101        0.0000791549
      0.0000545194        0.0000375892        0.0000257651
     -0.0000895044       -0.0001565270       -0.0001631644
      0.0002142094       -0.0003554403       -0.0000790629
     -0.0000545357        0.0000679402       -0.0000361307
      0.0000758188       -0.0000930826        0.0002251269
     -0.0000102667        0.0000299511        0.0001613145
      0.0000681193        0.0002009287        0.0000187910
     -0.0000673946       -0.0000453713       -0.0002864723
     -0.0000697489       -0.0000058555        0.0001084408
     -0.0000312015        0.0000793614        0.0000307329
      0.0000173621        0.0001668942       -0.0000108245
      0.0001794461        0.0001532073        0.0002129804
      0.0002192845       -0.0000903214       -0.0001518172
      0.0000661397        0.0000137827        0.0000342246
     -0.0001847134        0.0001914028       -0.0001695423
     -0.0000762999       -0.0000589389       -0.0000377824
     -0.0001386418       -0.0000234493       -0.0000482632
      0.0000958711        0.0000012257        0.0000220123
     -0.0000195910        0.0001960902       -0.0000038958
     -0.0000720367       -0.0001163897       -0.0000275002
      0.0000013447        0.0000201508       -0.0000842300
      0.0001059571        0.0000964288       -0.0000515779
      0.0001081746       -0.0002518785        0.0000991491
      0.0002099552       -0.0001423026        0.0000058543
      0.0000250125        0.0000970038        0.0001166270
      0.0000090310        0.0000355170       -0.0002554951
     -0.0001435502        0.0002541922       -0.0000555485
     -0.0000135128       -0.0002765332        0.0000517920
     -0.0000924977        0.0000157324        0.0002350935
     -0.0001556052        0.0000181161       -0.0000194694
      0.0000165585       -0.0002412131        0.0001485602
      0.0001572210       -0.0002072812        0.0001008593
      0.0001588332        0.0002024150       -0.0003737609
      0.0000216633       -0.0000941121       -0.0001154015
      0.0001118155        0.0000230583        0.0000437395
     -0.0000724547       -0.0002446853        0.0000804310
     -0.0001314699       -0.0000843001        0.0001259626
     -0.0000169299       -0.0001451964       -0.0001511440
      0.0000716108        0.0001948253        0.0002065127
     -0.0000894564        0.0000249928       -0.0000601508
     -0.0000595690        0.0001766218        0.0000413851
      0.0000410423       -0.0001580908       -0.0001505361
     -0.0000999826        0.0001915644        0.0000309819
      0.0001067046        0.0001642909       -0.0000237453
     -0.0000088492       -0.0000693847        0.0000622760
     -0.0000519488        0.0000000107        0.0000299617
     -0.0000879235       -0.0001126966       -0.0000257028
      0.0000832885        0.0000341116        0.0001227483
     -0.0001626504        0.0000121483       -0.0000253862
     -0.0000483299        0.0000978459       -0.0000212941
      0.0000285385       -0.0000810751        0.0000541283
      0.0003047753        0.0000387841        0.0001332211
     -0.0000197998       -0.0000406298        0.0000676957
      0.0001853216        0.0000997706        0.0000664838
      0.0000609328        0.0001215932       -0.0002527836
      0.0013598026       -0.0001351529       -0.0006163437
     -0.0000418616        0.0000328249       -0.0000615985
      0.0000564494       -0.0001409309        0.0002696717
      0.0002472739        0.0000059534        0.0006701293
      0.0000960832        0.0001013638       -0.0000112528
     -0.0001479392       -0.0002889469        0.0002936023
     -0.0009104390        0.0005978665        0.0005524550
     -0.0000730271        0.0001187404       -0.0000456737
      0.0002507756       -0.0000690217       -0.0000292592
     -0.0000183645       -0.0000277020       -0.0005315221
      0.0000298270       -0.0000512793        0.0000244765
      0.0000769307        0.0003354909        0.0001452013
      0.0001068566        0.0000361761       -0.0003868413
      0.0000187495       -0.0001341172       -0.0000394418
     -0.0000020044        0.0003253766       -0.0001883857
     -0.0010041372        0.0005484999        0.0005177134
      0.0000637702       -0.0000347631       -0.0000068297
     -0.0001413609        0.0000500600       -0.0000723604
      0.0003107363        0.0001038429       -0.0000513181
      0.0000402309       -0.0000664376        0.0000550746
     -0.0000934757       -0.0001500882        0.0001708862
      0.0001014049        0.0000438576        0.0000245688
     -0.0001364711       -0.0000511559       -0.0002803120
      0.0001363550       -0.0000338983        0.0001579120
      0.0003014809       -0.0000556460        0.0001384882
     -0.0002474473       -0.0000712377        0.0000767795
     -0.0000961689        0.0001009140        0.0000443981
      0.0000109422       -0.0001570217        0.0000364319
     -0.0001377491       -0.0000973734       -0.0001878297
     -0.0000603364        0.0001221536       -0.0001680260
      0.0000331674        0.0000796654        0.0001701815
      0.0001829420        0.0000437568       -0.0001837277
      0.0000101071       -0.0000732415        0.0001121055
      0.0000931672       -0.0001241129        0.0000810747
     -0.0000840761        0.0002036643       -0.0000253905
     -0.0001228174        0.0001529549       -0.0000051717
     -0.0001714461       -0.0001021589       -0.0001564122
     -0.0000909098        0.0001459860        0.0000600590
     -0.0001561325        0.0000713660       -0.0001357371
      0.0001487556        0.0001136519       -0.0002717641
      0.0002279704        0.0001256629        0.0002145829
      0.0000428814       -0.0000385685        0.0001143723
     -0.0000483619        0.0000012687        0.0001233443
     -0.0001194602        0.0000807723        0.0003477794
      0.0000168436        0.0001189418       -0.0001227515
      0.0000072595       -0.0000805457       -0.0002129587
     -0.0001170545        0.0000736439        0.0000245674
      0.0001328887        0.0000088812        0.0002925454
     -0.0000345167        0.0000841280       -0.0001440254
     -0.0000312139       -0.0000584710        0.0000859839
     -0.0001364626        0.0002057641        0.0000667546
     -0.0005833227        0.0010195826        0.0006604230
      0.0002219994        0.0000544173        0.0000360129
      0.0001448531       -0.0003657849       -0.0001399688
      0.0005425752        0.0000228843        0.0004083941
      0.0000216957       -0.0001412148        0.0001837913
     -0.0000031965        0.0002887675        0.0000113402
     -0.0003057573       -0.0006654095        0.0008418964
     -0.0000318625       -0.0001795502       -0.0000785762
     -0.0002520627       -0.0002750335        0.0002091425
      0.0002894453        0.0000047349        0.0000972915
      0.0000229413        0.0000886959       -0.0001380171
      0.0001878367       -0.0000436726       -0.0000266781
     -0.0000889320       -0.0000635215       -0.0000865759
      0.0000477394        0.0000135018       -0.0000843963
     -0.0001130070       -0.0000099754       -0.0001534925
      0.0000339122        0.0003079836        0.0000704479
      0.0000872359       -0.0000792749        0.0002531255
      0.0000031435       -0.0001037917       -0.0001138879
      0.0000160324        0.0001830534        0.0000771296
     -0.0000065528        0.0000262362       -0.0001459425
      0.0000468005       -0.0001162056       -0.0000149960
     -0.0002189749       -0.0001974585        0.0000709052
      0.0002402514       -0.0001690940       -0.0002101054
      0.0000219169        0.0002743599        0.0001872110
     -0.0000879489       -0.0001545746       -0.0000525782
      0.0001293866       -0.0000141290        0.0000414975
     -0.0001697744       -0.0001783907       -0.0001661645
      0.0001305262        0.0000784913        0.0001249420
     -0.0002751335        0.0001572023       -0.0000380058
     -0.0000782447        0.0000801751        0.0000153236
     -0.0000943649       -0.0001609268       -0.0000750697
      0.0000424491       -0.0000599598       -0.0000208063
      0.0000035909       -0.0000038411       -0.0002728461
     -0.0000304425        0.0000963607        0.0002326801
      0.0001606212        0.0000222479        0.0000448859
     -0.0000994929       -0.0000179597        0.0000174798
     -0.0001254966        0.0002445689        0.0001408269
     -0.0004170635        0.0000003930       -0.0002123979
     -0.0000477411       -0.0000975836        0.0002014192
     -0.0000431250        0.0000373679        0.0000892130
     -0.0000622460        0.0000256050        0.0000503453
     -0.0000105860       -0.0001353661       -0.0000600748
      0.0001719678        0.0001156364       -0.0000223652
     -0.0000742359        0.0000878206       -0.0001252791
      0.0001117115        0.0001391297       -0.0001341022
     -0.0000108757       -0.0000875524       -0.0000046771
      0.0000831957       -0.0000767095       -0.0000538400
      0.0000472613        0.0000038336       -0.0001263229
      0.0001217450        0.0000374889       -0.0003046345
     -0.0000446982        0.0000147092       -0.0000168510
      0.0002528668       -0.0000114954        0.0000193092
     -0.0001070998       -0.0000046574       -0.0001718186
     -0.0000274415       -0.0001446215        0.0000514092
      0.0002877876       -0.0000077405       -0.0002139875
     -0.0000605041       -0.0000052184        0.0002718636
     -0.0000342057        0.0000869657        0.0000495973
      0.0001132763       -0.0000992441        0.0000735758
      0.0001377284        0.0000410178       -0.0001572335
     -0.0000623564       -0.0001114478        0.0000529683
      0.0000025534       -0.0000873850        0.0000326294
     -0.0002252477        0.0000933095       -0.0000146701
     -0.0002160574       -0.0000763400       -0.0000632520
      0.0000138535        0.0001910248       -0.0000300143
     -0.0000368341        0.0001958690       -0.0000071167
     -0.0003212743        0.0000801772       -0.0002073091
     -0.0001665167        0.0000975182       -0.0001621254
      0.0000471073       -0.0004066098       -0.0000151361
      0.0000633584       -0.0001649441        0.0002583152
     -0.0001826167        0.0001110774        0.0000683855
     -0.0002223484       -0.0000759230       -0.0000655721
      0.0000128287       -0.0001553608       -0.0002686524
     -0.0000498610       -0.0001597966       -0.0001545879
      0.0000039740       -0.0001646175       -0.0000352305
      0.0001111188       -0.0000785762       -0.0000008029
      0.0001351069        0.0000681063        0.0003892317
      0.0000452000        0.0000288818        0.0000415569
     -0.0003408852        0.0001113587       -0.0001243510
     -0.0003327903        0.0000451069       -0.0000010934
      0.0000994495        0.0000603451        0.0001443392
     -0.0001428710       -0.0000579420        0.0000965547
      0.0002087192       -0.0000181742        0.0001671000
      0.0001127908        0.0000729106       -0.0000386758
      0.0002020870        0.0000323585       -0.0000263150
     -0.0002321737        0.0001922140        0.0000421227
     -0.0010218618       -0.0002979171        0.0001867764
      0.0001879336        0.0002750326       -0.0001656822
     -0.0000244829       -0.0001299167        0.0002277165
     -0.0005655230       -0.0004570690        0.0006606999
     -0.0000741160        0.0002584788       -0.0001831404
     -0.0002263208        0.0000744773       -0.0002546630
      0.0002705307        0.0004783848        0.0016592035
     -0.0003471495        0.0000398557        0.0000581468
      0.0002662714        0.0001062297       -0.0000306514
      0.0002052217        0.0001966859       -0.0002380253
     -0.0002016772       -0.0001075578       -0.0000793240
      0.0000442531        0.0000533227       -0.0000086885
      0.0000559911       -0.0001119130        0.0000701022
     -0.0002958557        0.0002715120       -0.0000173921
     -0.0001444469        0.0003823486        0.0000892162
      0.0000445902        0.0002155430       -0.0001249495
      0.0000981241        0.0002817930        0.0000451920
     -0.0000713118       -0.0000664799       -0.0002941807
      0.0009679101       -0.0004152511       -0.0008314527
     -0.0001137739       -0.0000791729        0.0000000857
      0.0001238384        0.0003252771       -0.0001370427
      0.0002002481       -0.0003842007       -0.0000805629
     -0.0001891632        0.0000110896       -0.0000266792
     -0.0001303001        0.0000562464       -0.0000341841
     -0.0002199604        0.0001125853       -0.0002379628
      0.0002477148       -0.0003348676        0.0002097054
      0.0002457129       -0.0000627116       -0.0001052712
     -0.0002661476       -0.0001022642        0.0001743297
      0.0001010824        0.0001312614        0.0002379480
     -0.0000731465        0.0001296557       -0.0003527202
     -0.0002414199       -0.0003080482        0.0000757811
      0.0001392144        0.0001244118       -0.0000647411
     -0.0001139530       -0.0003017910       -0.0000428359
     -0.0002830100       -0.0001839824        0.0001234083
      0.0000068917        0.0000587352       -0.0003556432
      0.0001198901        0.0002887791        0.0001951703
     -0.0003052299       -0.0000610566        0.0000627369
     -0.0000871598        0.0000438664       -0.0001481924
     -0.0000946001        0.0000108638        0.0000675191
     -0.0002599814       -0.0003278465       -0.0001668211
     -0.0002756801       -0.0001547269        0.0001416101
      0.0001085473        0.0002901749       -0.0000907683
      0.0000130141       -0.0000552620        0.0002497470
     -0.0002563974       -0.0000956317        0.0000353252
     -0.0000956052        0.0001391374       -0.0004694874
      0.0000441197        0.0001070566        0.0000412213
      0.0002788973       -0.0002464441        0.0003783571
      0.0001525936        0.0000471086       -0.0002993306
     -0.0001558327        0.0001891812        0.0001897679
     -0.0000085886       -0.0000998121        0.0000450461
      0.0002199014        0.0002500464        0.0002637417
     -0.0000443976       -0.0000121631        0.0000551823
      0.0003592028       -0.0001780058        0.0000723060
      0.0000824132        0.0001417087       -0.0001187886
     -0.0000354522       -0.0002099462       -0.0002445929
     -0.0001172321        0.0000055182       -0.0001391774
     -0.0002264404       -0.0000117249       -0.0001235397
     -0.0000002126        0.0000013545        0.0003066714
     -0.0003939441       -0.0000127122        0.0001327148
      0.0000231912        0.0001981554        0.0000127623
     -0.0000662410       -0.0000969046        0.0000795228
     -0.0001441707        0.0000192671       -0.0001221324
      0.0000524953        0.0001904969        0.0000264233
     -0.0002203485        0.0000873588       -0.0000733839
      0.0000530996       -0.0001602512        0.0001536082
      0.0001454900       -0.0000739472       -0.0000646697
     -0.0001613055       -0.0004001221       -0.0002317711
     -0.0000069167        0.0002006564       -0.0000734619
      0.0000395144        0.0000663227       -0.0002787945
     -0.0000439679        0.0000363426        0.0000376505
      0.0000680653       -0.0002043214       -0.0002599273
      0.0000074417        0.0001086980        0.0000443475
      0.0002026303        0.0000728050        0.0000524839
     -0.0001169231       -0.0001933584       -0.0001421630
      0.0000895893        0.0000001212       -0.0001242720
     -0.0000550417       -0.0000300838       -0.0000274251
     -0.0002204812        0.0001048230        0.0000112608
     -0.0004606914        0.0000606947        0.0001790299
      0.0001315480        0.0000299037        0.0000717745
     -0.0000375052       -0.0001454582        0.0000739526
      0.0000252870       -0.0001467428       -0.0001472693
     -0.0001322195       -0.0000392803        0.0000809835
     -0.0000850206        0.0000272982        0.0001295181
     -0.0001533031       -0.0001945391       -0.0001234967
      0.0002887074       -0.0001325439        0.0000731516
      0.0000373232       -0.0001609739        0.0001102071
     -0.0000729806        0.0001430837       -0.0000871161
      0.0000769986        0.0001858698        0.0000452284
      0.0001916908       -0.0003046038       -0.0001245289
      0.0002018878        0.0001434826       -0.0000894237
      0.0000829239       -0.0000917082       -0.0000599961
     -0.0001132811       -0.0001781645        0.0000619569
      0.0000196372       -0.0000878342       -0.0002178743
     -0.0000541376        0.0000657262        0.0000700837
     -0.0001447721        0.0001525034        0.0000581434
      0.0000925412       -0.0000142276       -0.0000583584
      0.0000488160       -0.0000454602        0.0001114169
     -0.0001031949        0.0000432540       -0.0000646107
     -0.0001244634       -0.0002404496        0.0000563442
     -0.0001059753        0.0000129163        0.0000901639
      0.0000819836       -0.0000242517       -0.0001044402
     -0.0001070636       -0.0001265997        0.0000672477
     -0.0000552829       -0.0001467234       -0.0001172260
     -0.0001285436       -0.0000506182       -0.0002262387
      0.0000798536       -0.0001178610       -0.0000269918
      0.0000039983       -0.0000898528        0.0001952316
      0.0000859441        0.0001454261       -0.0002415757
      0.0000979707       -0.0000268725       -0.0000521216
     -0.0000824000       -0.0002836389       -0.0000707896
      0.0000207649        0.0000985013       -0.0001921356
     -0.0000132029       -0.0000428493       -0.0000568701
     -0.0000385806        0.0000831377       -0.0000928913
      0.0000830462        0.0001165405        0.0000745996
     -0.0000512371       -0.0000245818        0.0001553566
      0.0000079515       -0.0001023773       -0.0001364403
      0.0000747409        0.0000304244        0.0000453103
      0.0000586372        0.0000421645        0.0001576322
      0.0000473661        0.0000179459        0.0000672844
      0.0000019397        0.0001628654       -0.0000246132
      0.0001006077       -0.0001002596        0.0000829394
     -0.0001948932       -0.0001556670       -0.0000694635
      0.0000556768        0.0000125742        0.0000598132
      0.0001346776       -0.0001522702        0.0002589046
     -0.0000029404       -0.0000000388       -0.0000608801
     -0.0000606274        0.0000008888       -0.0000075663
      0.0000886277        0.0000667382        0.0004491784
     -0.0006044503       -0.0008212108       -0.0006189417
      0.0000395765       -0.0000984973       -0.0000625258
     -0.0000726433        0.0001711866        0.0001159447
      0.0005058442        0.0000517544       -0.0008508882
     -0.0001539498        0.0000459063       -0.0002317385
     -0.0003464650       -0.0001334708       -0.0002275941
     -0.0009381993       -0.0001019984       -0.0013788054
     -0.0003585393        0.0000117386        0.0000689084
     -0.0000246024       -0.0000832142        0.0000778692
     -0.0000953519       -0.0000273908        0.0000690623
     -0.0000114517        0.0000664869       -0.0001927798
      0.0000679783        0.0000691279        0.0000050194
     -0.0002994323       -0.0001507748       -0.0000921931
      0.0000504278        0.0000590020       -0.0000937463
     -0.0000161432        0.0001104933        0.0000735698
      0.0001188678        0.0000082500        0.0001396691
      0.0001461464       -0.0001964741        0.0000881033
     -0.0002125869        0.0000406404       -0.0000757151
     -0.0000340937        0.0000268109       -0.0001167258
     -0.0000320516       -0.0000948048       -0.0001370630
     -0.0002355110       -0.0002169765        0.0001036562
     -0.0000835952       -0.0001760745        0.0000220032
     -0.0000339932       -0.0000631418       -0.0000167525
      0.0000581364        0.0001476507        0.0000038784
      0.0000708522        0.0003220687       -0.0000363974
     -0.0000454037        0.0002506399        0.0001552421
     -0.0000465111       -0.0001422049        0.0002826647
      0.0002249190        0.0003315872       -0.0002480070
      0.0000415886        0.0001629602       -0.0000653496
     -0.0002909806       -0.0001777876        0.0000973924
     -0.0002009024       -0.0000213548        0.0000104766
      0.0000084727       -0.0001039095        0.0000935984
     -0.0000668422       -0.0000354911       -0.0000174229
      0.0000327286        0.0002098536        0.0000333516
      0.0000238533       -0.0000947919       -0.0002714199
     -0.0000057822       -0.0000679603       -0.0000497170
      0.0001536634        0.0001190605        0.0001653737
     -0.0000343043       -0.0002243547        0.0000358154
     -0.0002903170       -0.0001507143        0.0000139154
     -0.0000247862       -0.0000201147       -0.0001692706
      0.0000766134        0.0000286885        0.0002664296
      0.0000386646        0.0000605512       -0.0001035331
     -0.0001829256        0.0003099745       -0.0001885815
      0.0001980526        0.0000036217       -0.0000961006
     -0.0000999855        0.0001633314       -0.0001292270
     -0.0000515216       -0.0000227306        0.0001541061
      0.0001131220        0.0000736004        0.0000615630
     -0.0000724836       -0.0000953866       -0.0000295982
      0.0000467186        0.0000243692        0.0001908334
     -0.0000814257       -0.0000212075       -0.0000333219
     -0.0000561215        0.0001240085       -0.0000991351
     -0.0001779748        0.0000974399       -0.0000119215
     -0.0001050484       -0.0000336976        0.0000276868
     -0.0001454976        0.0000361519        0.0000117583
      0.0000986700       -0.0001178238       -0.0000338844
     -0.0000057107       -0.0001016523       -0.0001583820
      0.0000942439       -0.0001852184        0.0000071441
     -0.0002182124       -0.0002255100       -0.0002690724
     -0.0001763216       -0.0000609429       -0.0001673404
      0.0000803525        0.0000216063       -0.0000631656
      0.0000474707       -0.0002296157        0.0000145144
     -0.0001561633        0.0002282378       -0.0002471421
      0.0001108443        0.0002632010        0.0001907630
      0.0001832701        0.0002154112       -0.0000937381
     -0.0002453699        0.0000804168        0.0001280898
     -0.0001820251       -0.0000537841       -0.0003161896
      0.0009566514       -0.0002912239        0.0000546937
      0.0000583306        0.0003250812       -0.0000864633
      0.0001081855        0.0000321980       -0.0001906239
     -0.0002346179       -0.0005688155       -0.0005092189
      0.0000335838        0.0000048209       -0.0002020982
      0.0002972604       -0.0000490705       -0.0001597612
     -0.0010513829        0.0015925515        0.0005046816
     -0.0000233716       -0.0001938364       -0.0001049363
      0.0000626020       -0.0002117122       -0.0002576744
     -0.0007720147       -0.0002603612        0.0004089022
     -0.0000726937        0.0000230481       -0.0001487326
      0.0000967118        0.0001346268        0.0001704778