&FORCE_EVAL
  STRESS_TENSOR ANALYTICAL
  METHOD Fist
  &MM
    &FORCEFIELD
      PARMTYPE CHM
      PARM_FILE_NAME charmm.pot
      DANNY T
      DANNY_CUTOFF 5.5
      &DANNY_PRINT HIGH
      &END DANNY_PRINT
      &DANNY_PRINT_FORCES HIGH
      &END DANNY_PRINT_FORCES
      &NONBONDED
        &LENNARD-JONES
          ATOMS HSI SIO
          EPSILON [eV] 0.0033587 #=sqrt(eps1*eps2)
          RCUT 10.0
          SIGMA 2.3163 #=2^(-1/6)*(sigma1+sigma2)
        &END LENNARD-JONES
        &LENNARD-JONES
          ATOMS HSI OSB
          EPSILON [eV] 0.0031267 #=sqrt(eps1*eps2)
          RCUT 10.0
          SIGMA 2.4607 #=2^(-1/6)*(sigma1+sigma2)
        &END LENNARD-JONES
        &LENNARD-JONES
          ATOMS HSI OSI
          EPSILON [kcalmol] 0.083645681299156144 #=sqrt(eps1*eps2)
          RCUT 10.0
          SIGMA 1.7768974933309067 #=2^(-1/6)*(sigma1+sigma2)
        &END LENNARD-JONES
        &LENNARD-JONES
          ATOMS HSI HSI
          EPSILON [eV] 0.0008672 #=sqrt(eps1*eps2)
          RCUT 10.0
          SIGMA 1.7818 #=2^(-1/6)*(sigma1+sigma2)
        &END LENNARD-JONES
        &LENNARD-JONES
          ATOMS OT SIO
          EPSILON [eV] 0.0092592 #=sqrt(eps1*eps2)
          RCUT 10.0
          SIGMA 3.0005 #=2^(-1/6)*(sigma1+sigma2)
        &END LENNARD-JONES
        &LENNARD-JONES
          ATOMS OT OSB
          EPSILON [eV] 0.0086198 #=sqrt(eps1*eps2)
          RCUT 10.0
          SIGMA 3.1449 #=2^(-1/6)*(sigma1+sigma2)
        &END LENNARD-JONES
        &LENNARD-JONES
          ATOMS OT OSI
          EPSILON [eV] 0.0065472 #=sqrt(eps1*eps2)
          RCUT 10.0
          SIGMA 3.0451 #=2^(-1/6)*(sigma1+sigma2)
        &END LENNARD-JONES
        &LENNARD-JONES
          ATOMS OT HSI
          EPSILON [kcalmol] 0.083645681299156144 #=sqrt(eps1*eps2)
          RCUT 10.0
          SIGMA 1.7752938756382539 #=2^(-1/6)*(sigma1+sigma2)
        &END LENNARD-JONES
        &LENNARD-JONES
          ATOMS HT SIO
          EPSILON [eV] 0.0041135 #=sqrt(eps1*eps2)
          RCUT 10.0
          SIGMA 2.0045 #=2^(-1/6)*(sigma1+sigma2)
        &END LENNARD-JONES
        &LENNARD-JONES
          ATOMS HT OSB
          EPSILON [eV] 0.0038295 #=sqrt(eps1*eps2)
          RCUT 10.0
          SIGMA 2.1488 #=2^(-1/6)*(sigma1+sigma2)
        &END LENNARD-JONES
        &LENNARD-JONES
          ATOMS HT OSI
          EPSILON [kcalmol] 0.083645681299156144 #=sqrt(eps1*eps2)
          RCUT 10.0
          SIGMA 1.7768974933309065 #=2^(-1/6)*(sigma1+sigma2)
        &END LENNARD-JONES
        &LENNARD-JONES
          ATOMS HT HSI
          EPSILON [kcalmol] 0.046 #=sqrt(eps1*eps2)
          RCUT 10.0
          SIGMA 0.40001352444501237 #=2^(-1/6)*(sigma1+sigma2)
        &END LENNARD-JONES
        &LENNARD-JONES
          ATOMS OSI SIO
          EPSILON 0.0
          RCUT 10.0
          SIGMA 0.0
        &END LENNARD-JONES
        &LENNARD-JONES
          ATOMS OSI OSB
          EPSILON 0.0
          RCUT 10.0
          SIGMA 0.0
        &END LENNARD-JONES
        &LENNARD-JONES
          ATOMS OSI OSI
          EPSILON 0.0
          RCUT 10.0
          SIGMA 0.0
        &END LENNARD-JONES
        &LENNARD-JONES
          ATOMS OSB SIO
          EPSILON 0.0
          RCUT 10.0
          SIGMA 0.0
        &END LENNARD-JONES
        &LENNARD-JONES
          ATOMS OSB OSB
          EPSILON 0.0
          RCUT 10.0
          SIGMA 0.0
        &END LENNARD-JONES
        &LENNARD-JONES
          ATOMS SIO SIO
          EPSILON 0.0
          RCUT 10.0
          SIGMA 0.0
        &END LENNARD-JONES
      &END NONBONDED
    &END FORCEFIELD
    &POISSON
      &EWALD
        EWALD_TYPE ewald
        EWALD_ACCURACY 1.E-8
        ALPHA 0.35
        GMAX 61
      &END EWALD
    &END POISSON
  &END MM
  &SUBSYS
    &CELL
      A 32.616000 0.000000 0.000000
      B 0.000000 54.149000 0.000000
      C 0.000000 0.000000 32.616000
      PERIODIC XYZ
    &END CELL
#    &COORD
#    &END COORD
    &VELOCITY
      -0.0000001022        0.0000489343        0.0002335328
      -0.0001136518        0.0002453920        0.0000075850
      -0.0000161107        0.0001861490       -0.0001993946
      -0.0001252941       -0.0000457161        0.0001312900
       0.0001370571        0.0001117191        0.0000576691
       0.0000474569        0.0000506003        0.0004040001
       0.0001004593       -0.0000190769        0.0000676651
       0.0000961567        0.0000646028        0.0001199797
      -0.0000788503        0.0001363119        0.0000920782
      -0.0000081420       -0.0001569567        0.0000237689
       0.0000959512        0.0000650160        0.0001861915
       0.0000405718        0.0000172846        0.0002580441
      -0.0000557408        0.0003144716       -0.0000827878
       0.0000420480       -0.0000175999        0.0000297625
       0.0000144967        0.0001697411        0.0001690328
       0.0000097173        0.0002499863       -0.0001429025
      -0.0000960520       -0.0000342625       -0.0000900656
      -0.0003056262       -0.0000503096        0.0000693995
      -0.0002855113       -0.0001520491        0.0000074109
       0.0002439888        0.0000440146       -0.0000494676
      -0.0001488303        0.0002729025        0.0002854015
      -0.0000017622        0.0000668657       -0.0001405313
       0.0001520840        0.0000242311       -0.0000101413
       0.0000583886        0.0000619695        0.0000582748
      -0.0002012882        0.0000326680        0.0002014252
      -0.0000163901        0.0002335171       -0.0002684844
       0.0000007524       -0.0000402625       -0.0000225674
      -0.0000975195       -0.0000311938        0.0002746022
       0.0000530703       -0.0000338263       -0.0000781494
      -0.0000500380        0.0000676731       -0.0003365917
      -0.0002555888       -0.0000192443       -0.0000706059
      -0.0000410995        0.0000282207       -0.0000307072
      -0.0001218799        0.0000771540        0.0001201810
      -0.0000189304        0.0001204405       -0.0000626454
      -0.0000420968       -0.0000318613       -0.0000366317
      -0.0000327361        0.0001493565        0.0001079361
       0.0000130035       -0.0000139678       -0.0000816944
      -0.0000334432       -0.0000566451       -0.0001958957
      -0.0000752370       -0.0002286949        0.0000843010
      -0.0001081558        0.0000291952        0.0001866509
      -0.0000238978        0.0000368759        0.0000277610
      -0.0000921509        0.0000447624        0.0001476708
      -0.0001408528        0.0001056442       -0.0000252182
       0.0001920182       -0.0000148556       -0.0000619258
       0.0001193590        0.0000382559        0.0003265647
      -0.0000484239       -0.0000488652       -0.0001346126
      -0.0000270387       -0.0000167289        0.0000901669
      -0.0000030332        0.0000886608        0.0000047501
       0.0001431127       -0.0002292292        0.0001602259
       0.0001632200        0.0001153290        0.0000475364
       0.0002659666        0.0001259743        0.0002120137
      -0.0001014495       -0.0000512888       -0.0000545674
       0.0000972077       -0.0000128892       -0.0000824095
      -0.0000588979        0.0001179575        0.0001434019
       0.0003785302       -0.0000303027        0.0000215327
       0.0001664911        0.0002276914        0.0000046464
      -0.0000897975       -0.0000383300       -0.0001264202
      -0.0001746672       -0.0000970652       -0.0001902513
      -0.0003518086        0.0000936709        0.0001840410
       0.0000182741        0.0002930809        0.0000545104
      -0.0001166032       -0.0001519567        0.0002007858
      -0.0002022688       -0.0001630315       -0.0001697333
       0.0001996349       -0.0001449334       -0.0001441357
      -0.0000847075       -0.0001432019        0.0001382849
      -0.0000318154       -0.0000680601       -0.0002397089
      -0.0000713514        0.0001624364       -0.0000059441
       0.0000917886       -0.0001807029       -0.0000413413
      -0.0004166780       -0.0007138613       -0.0010965965
       0.0000234654       -0.0000622824       -0.0000415249
       0.0005284831        0.0001149136       -0.0003849387
      -0.0007338443       -0.0000988534        0.0008865214
      -0.0000503723        0.0000449877        0.0001002517
      -0.0002124776       -0.0001279520       -0.0000025261
      -0.0001690624       -0.0004408308        0.0003626867
      -0.0001900981       -0.0000064716       -0.0000949113
      -0.0000492691        0.0001937501       -0.0002029541
      -0.0003105673        0.0010387429        0.0005733731
       0.0000376594        0.0000425406        0.0002232627
       0.0000546576       -0.0001404291       -0.0001781206
       0.0004744092        0.0005272175       -0.0002666533
       0.0002253847       -0.0000446568        0.0002599590
      -0.0002057134       -0.0000870724       -0.0000208557
       0.0012675872        0.0009068222        0.0001670857
      -0.0000273289        0.0000718204        0.0001294495
      -0.0000478341        0.0000726045        0.0000598133
       0.0000118558        0.0003784188        0.0000877661
      -0.0000865004       -0.0000850845       -0.0003021628
      -0.0000704186       -0.0000806544        0.0000824181
      -0.0000362712       -0.0001173218        0.0000015780
      -0.0000877396       -0.0000870468       -0.0002574539
      -0.0000605556        0.0000474464        0.0000741882
       0.0001046123       -0.0001947183       -0.0001131606
      -0.0001419288       -0.0002275897        0.0000504577
      -0.0000200509       -0.0000083700        0.0000991256
      -0.0001385840        0.0002209204       -0.0000856085
      -0.0000192310        0.0001588118        0.0001220034
      -0.0000326505       -0.0000118583        0.0000127182
      -0.0000432068        0.0000099185        0.0000850775
       0.0001045926        0.0001282539       -0.0000841606
       0.0000674152       -0.0000239418        0.0001637961
       0.0000546697        0.0000536448        0.0002271354
       0.0001122329        0.0001547513       -0.0000513783
       0.0000945973       -0.0001196658       -0.0002756967
       0.0001234991        0.0000237985        0.0002441608
       0.0001295996       -0.0000132611       -0.0000063471
       0.0000060206       -0.0000330818       -0.0002155729
      -0.0001857310       -0.0001172417       -0.0000733384
      -0.0001600735       -0.0000141353        0.0004028510
       0.0001807091       -0.0000268510       -0.0000244704
      -0.0000152188        0.0000077617        0.0001918006
       0.0001676067        0.0000677354        0.0001943685
      -0.0000181978       -0.0000099863       -0.0002760267
      -0.0002154588        0.0000628676        0.0002009768
      -0.0000967092        0.0000274226        0.0000095894
      -0.0001145739       -0.0000955672       -0.0001184804
       0.0000869521        0.0000773515        0.0000156366
      -0.0001528320        0.0000204606        0.0001005519
      -0.0000859756       -0.0001315214        0.0001262340
      -0.0007262516        0.0000284768       -0.0009069313
       0.0002000760        0.0001488652        0.0001167890
       0.0001856633        0.0000821037        0.0001742291
       0.0000557793       -0.0000311300       -0.0007592290
      -0.0000102549        0.0000001951        0.0001995532
       0.0000167322        0.0001528436        0.0000360817
       0.0009085617       -0.0004644075        0.0004599637
       0.0000449639       -0.0001860371       -0.0000797164
      -0.0000659835       -0.0001663031        0.0000297729
      -0.0000925444       -0.0000634313        0.0000033692
       0.0001550865       -0.0001375330       -0.0000582922
      -0.0001355292       -0.0000029887       -0.0001945202
       0.0000449592        0.0000201321        0.0000172341
       0.0000009251        0.0001407163        0.0002062750
       0.0000989706       -0.0000255766       -0.0001339807
       0.0000404463       -0.0000437457        0.0001279183
      -0.0000762482       -0.0001035358        0.0002104439
       0.0000586306       -0.0000574632        0.0000387470
      -0.0000649386       -0.0001714978       -0.0001971204
      -0.0002006001       -0.0000064520       -0.0001777060
       0.0000109495       -0.0002368686       -0.0000109383
      -0.0000920142       -0.0000874566        0.0000709829
      -0.0001211535       -0.0001723080        0.0000459979
      -0.0001985716       -0.0001241027       -0.0002166916
       0.0001843383        0.0000916454        0.0000780386
       0.0000370172        0.0001286083       -0.0000123539
      -0.0001348231       -0.0000862125        0.0000838244
      -0.0000286448        0.0000222449        0.0003484590
      -0.0000550016       -0.0000806726       -0.0001551869
      -0.0002758132       -0.0000576572       -0.0000896877
       0.0000532271       -0.0000830320        0.0000154994
       0.0001628738       -0.0000098195       -0.0000442733
      -0.0000151174       -0.0000216202       -0.0001690067
      -0.0000330266        0.0000514762       -0.0001463399
       0.0000613762       -0.0001199295        0.0001873134
      -0.0001117744        0.0000034118       -0.0001881658
      -0.0000421181        0.0001035400       -0.0000802460
       0.0001807441       -0.0001200579       -0.0001770276
      -0.0000402870       -0.0001547069       -0.0002403616
       0.0001730701        0.0000387067       -0.0000074695
      -0.0002467821        0.0000332268       -0.0001342457
      -0.0002950453       -0.0001183394        0.0000257959
      -0.0002626983        0.0001069960       -0.0005569111
      -0.0002866491       -0.0000673797        0.0000210767
      -0.0000938564       -0.0000326427       -0.0000626887
      -0.0001080236        0.0002952209        0.0001665919
      -0.0000599445       -0.0001559201        0.0000003870
      -0.0000656261        0.0000208598       -0.0000665048
       0.0000424522        0.0000999273       -0.0000100733
      -0.0000791572        0.0001848541        0.0000486837
      -0.0001958291       -0.0000610141        0.0002370363
       0.0001162412       -0.0000210020        0.0000924248
       0.0001358054       -0.0001486397        0.0000290293
      -0.0001808751        0.0000447516        0.0001017055
      -0.0000442087       -0.0000773171       -0.0000853514
       0.0000362079       -0.0002827118       -0.0002061051
       0.0002529820       -0.0000159611        0.0001356925
       0.0003431239        0.0001335857        0.0001602201
       0.0001906828        0.0000085411       -0.0000185808
       0.0000340471       -0.0000025995       -0.0001243904
      -0.0001541395        0.0000920898       -0.0000230916
      -0.0001610475       -0.0002745877       -0.0001249673
       0.0000141315        0.0000424866       -0.0002063399
       0.0000404465        0.0001025331       -0.0000305118
      -0.0001762357        0.0000930945       -0.0001066148
       0.0001199125        0.0000327728       -0.0001441105
      -0.0000921022       -0.0002048741        0.0001295056
      -0.0002384276       -0.0000309449        0.0000833456
      -0.0000917182        0.0002020512        0.0000375807
      -0.0001304799        0.0000138904        0.0002531566
       0.0001629171        0.0000848702        0.0000254035
       0.0001153949        0.0001200536        0.0002508240
      -0.0001636337        0.0000596602       -0.0002131837
      -0.0001905317        0.0000986469        0.0001829606
       0.0001609189       -0.0000812421       -0.0003197234
      -0.0001599569       -0.0000027923       -0.0001603493
       0.0001098515        0.0002927362        0.0001568502
       0.0000758985        0.0000636319       -0.0000411719
       0.0000897625        0.0000787231        0.0000411671
      -0.0000915880       -0.0001762902        0.0001351917
       0.0001895056       -0.0000730353        0.0000288892
      -0.0000072489       -0.0001287082       -0.0001780957
       0.0002241146        0.0002551496        0.0000140465
       0.0000851715        0.0001178486        0.0002039357
       0.0001700064       -0.0002595591       -0.0005719979
       0.0000116409       -0.0003144982        0.0000667129
      -0.0000266217       -0.0001296920       -0.0002173790
       0.0009799178        0.0010067303       -0.0006293216
       0.0000072372       -0.0000803478       -0.0000179205
       0.0001496122        0.0000509250       -0.0004531765
      -0.0009575699       -0.0002944391        0.0004261421
      -0.0001705161       -0.0000022215        0.0000252927
      -0.0000542440        0.0001651463        0.0000398934
      -0.0000543031        0.0000905216       -0.0000840734
      -0.0001415298        0.0002996751       -0.0000246861
       0.0000570413        0.0001830784        0.0001556237
      -0.0001695149        0.0001227899        0.0000968300
       0.0002655977        0.0001438661       -0.0001799190
       0.0000769283       -0.0002298826       -0.0000798660
       0.0003437141        0.0010014772       -0.0008286850
       0.0000190304        0.0001098308        0.0001735123
      -0.0002273265       -0.0000464988       -0.0000285767
       0.0005815377        0.0006072904       -0.0011131420
       0.0000593642       -0.0000589330       -0.0000277971
       0.0001865171       -0.0002355391       -0.0000937590
       0.0003847623        0.0012443391       -0.0014632467
       0.0000272434       -0.0001497204       -0.0001583993
       0.0002630897        0.0000212934       -0.0000004900
      -0.0000234781        0.0000591918        0.0000047433
       0.0000946051        0.0001229994       -0.0002430407
       0.0003343122        0.0001977333        0.0003017559
       0.0001663032        0.0002332234       -0.0000336015
       0.0001334417        0.0002101180       -0.0000002973
       0.0001486845       -0.0001034730       -0.0003293287
       0.0002047449        0.0001045270       -0.0002582566
      -0.0000627984       -0.0001836604       -0.0001738424
      -0.0000263205       -0.0000228707        0.0004853187
      -0.0000050493       -0.0001077723        0.0000334289
      -0.0000359344        0.0002205311       -0.0000442219
      -0.0000687953        0.0002420208        0.0000390923
      -0.0000560956       -0.0000719190       -0.0001617126
       0.0002124952       -0.0000090751       -0.0003399202
      -0.0001931524       -0.0000003417        0.0001100441
       0.0000712115        0.0002028278        0.0001845238
       0.0000955534       -0.0000079622       -0.0000082806
      -0.0001068661        0.0001178508        0.0001267886
      -0.0000661324       -0.0002068650        0.0001293860
       0.0001014145        0.0000176435        0.0002506796
      -0.0001637881       -0.0000176778        0.0003348417
      -0.0000158254        0.0001867131       -0.0001197757
       0.0000729765        0.0002895979        0.0002166359
      -0.0000890896        0.0000482199       -0.0001293744
       0.0000517071       -0.0000015380        0.0000502016
      -0.0000041191       -0.0002919998       -0.0000583774
      -0.0002879267       -0.0001799128       -0.0000360888
       0.0000247997        0.0001201801       -0.0001596927
       0.0001207979        0.0002976251        0.0001156750
      -0.0000225786       -0.0001120351        0.0001099157
       0.0002162011       -0.0005828674        0.0002566339
      -0.0001243847        0.0001750701       -0.0001549392
       0.0000837313        0.0002262651       -0.0000167500
      -0.0002255552       -0.0000939031        0.0001221191
       0.0001822457        0.0002206762       -0.0002317999
      -0.0000020364       -0.0001856483       -0.0002419876
       0.0002075210        0.0002540284        0.0001268791
      -0.0004316598       -0.0000505683        0.0001584149
      -0.0000085797        0.0004481159        0.0002031360
      -0.0005393538       -0.0001138224        0.0000559486
      -0.0001361084        0.0002297060        0.0002590177
      -0.0001044957       -0.0001544866       -0.0003035424
      -0.0000315580        0.0000193793        0.0003601026
      -0.0002096401       -0.0004712945        0.0000605304
       0.0000261372        0.0000341779       -0.0001728094
      -0.0000352039       -0.0000085904        0.0000874926
       0.0003640694       -0.0000110290        0.0000893968
       0.0000488010        0.0000284729        0.0000231609
      -0.0002624354       -0.0002941547       -0.0001403305
       0.0001297851        0.0000379652        0.0001254526
      -0.0000434423       -0.0004030252       -0.0000281693
      -0.0002432495        0.0001071351        0.0000343841
       0.0000715500       -0.0001541437        0.0001795421
      -0.0001989360       -0.0000350704       -0.0000059087
      -0.0002354328       -0.0001585753        0.0002411774
      -0.0000044142       -0.0002241878       -0.0003797348
      -0.0000580482       -0.0002660578        0.0001949438
      -0.0003576245       -0.0000145477       -0.0002218160
       0.0001856434        0.0002682304       -0.0001985837
       0.0000181801       -0.0003118836        0.0000437636
      -0.0001907728        0.0001386737       -0.0001442997
      -0.0000844726        0.0001299616       -0.0000729469
       0.0002097667       -0.0001096823       -0.0001943204
       0.0002573482        0.0000071781       -0.0000393558
       0.0000584830       -0.0000720617        0.0000391955
       0.0000894349       -0.0001109974       -0.0001231180
       0.0001130360        0.0000823886       -0.0001712429
       0.0000932445        0.0001885963       -0.0000809619
      -0.0004245052       -0.0000787355        0.0001455983
       0.0000985516       -0.0002352883       -0.0001438387
      -0.0001760910        0.0001553174        0.0001344586
       0.0000697202       -0.0000492211        0.0001313608
       0.0000008284       -0.0001047728        0.0000966181
      -0.0000544833        0.0000808231       -0.0000718139
       0.0003081852        0.0001397456        0.0000001130
      -0.0001027369       -0.0000031262        0.0001245076
      -0.0002909171       -0.0001659932       -0.0001061975
      -0.0000079551       -0.0000847940        0.0000547665
       0.0001187323        0.0000433715        0.0000459006
       0.0001456548       -0.0000605578       -0.0001891710
       0.0000073944       -0.0000186346       -0.0002542253
       0.0000332852        0.0001384410        0.0001878902
      -0.0002759049       -0.0001325800        0.0002498217
      -0.0000300599        0.0000735749        0.0002330333
      -0.0000435952       -0.0002676557        0.0000475881
      -0.0000871899        0.0000544780       -0.0002324192
       0.0001942513        0.0001313153        0.0000215006
      -0.0000128873       -0.0002130244       -0.0000824119
      -0.0000398737       -0.0002222199        0.0001261760
       0.0000713402        0.0001966215       -0.0000028787
       0.0000315920       -0.0000919196       -0.0001570915
       0.0000405428        0.0000919785       -0.0002257795
      -0.0000184085       -0.0000361099       -0.0000370411
      -0.0000430734       -0.0000497247       -0.0000092481
      -0.0001517499        0.0001494013       -0.0000105242
       0.0000806926        0.0000029297       -0.0002422244
      -0.0000833231       -0.0000687941       -0.0002684922
       0.0000899040       -0.0002794869       -0.0001649378
       0.0001029688        0.0002899627        0.0001703365
       0.0000460799       -0.0002631231        0.0000025873
       0.0002302888       -0.0000336022        0.0000712387
       0.0001419323       -0.0000140608       -0.0001712670
       0.0003212690        0.0012619718        0.0002632494
      -0.0000549926        0.0001970117        0.0000893820
      -0.0001943450        0.0003921293       -0.0001428481
       0.0000240155        0.0003210882       -0.0011005049
       0.0002628216       -0.0000872920        0.0001770024
      -0.0001935124       -0.0000829156       -0.0001608993
       0.0004574497       -0.0001633021        0.0002255184
      -0.0000356261       -0.0000445875       -0.0000203262
       0.0001259805        0.0000593161        0.0001543992
       0.0001513077        0.0000339175        0.0000103066
       0.0001299971        0.0000023988       -0.0001249759
      -0.0000265536        0.0001791203        0.0001124790
      -0.0000249743       -0.0002333653       -0.0000699006
      -0.0000882779       -0.0000904131        0.0000510753
       0.0001589440       -0.0000964257        0.0000400881
      -0.0000837680       -0.0001030404        0.0003024989
      -0.0001573056       -0.0000395248        0.0000269916
      -0.0001499658        0.0000694075       -0.0000143146
      -0.0001162484        0.0000145247        0.0001060683
       0.0001686763       -0.0000623773       -0.0001184604
      -0.0001289938       -0.0000380030       -0.0000961204
       0.0001839322       -0.0000548656       -0.0000632437
       0.0000357049       -0.0000907593       -0.0000209756
       0.0000947705        0.0001539002       -0.0002810122
      -0.0000390838       -0.0000172791       -0.0000196179
      -0.0000971957       -0.0000833293       -0.0000556192
       0.0000752922        0.0000227437        0.0000836636
       0.0001259426        0.0000370762       -0.0001929878
      -0.0001338408       -0.0000026171        0.0001968748
      -0.0000577377        0.0000527366        0.0002092058
       0.0000516756       -0.0000316582        0.0001788820
       0.0001193580       -0.0002434131        0.0000335311
      -0.0002086308       -0.0002756545       -0.0000941561
      -0.0000838750       -0.0001951043       -0.0000726303
       0.0000294071       -0.0000268047       -0.0000311228
      -0.0000568436       -0.0000842703        0.0003085558
       0.0001462715       -0.0001286369       -0.0001856184
      -0.0001285352       -0.0000910338        0.0001313431
      -0.0000889377       -0.0001487891       -0.0000887273
       0.0003477499       -0.0001282652        0.0000802325
       0.0001593278        0.0001471434       -0.0001564549
       0.0000206894       -0.0001346031       -0.0000058611
       0.0001444966        0.0000704899       -0.0000652582
       0.0000710599        0.0001578156        0.0000771367
      -0.0000127087        0.0002143712       -0.0001599214
       0.0002969303        0.0002481544       -0.0000709185
      -0.0000614394        0.0000780925       -0.0000096478
      -0.0001693192        0.0000237835        0.0000957668
       0.0000460905        0.0001417098       -0.0001969755
      -0.0001194211       -0.0002059688        0.0001049723
       0.0001640857        0.0001074149       -0.0001944901
      -0.0000587999        0.0001698715       -0.0000418800
       0.0001863130        0.0000894245        0.0001534958
      -0.0000430776        0.0001376073        0.0000129130
       0.0000895480       -0.0001939214       -0.0001541906
      -0.0000162202       -0.0001908162       -0.0001299205
      -0.0000261561        0.0000309283       -0.0000101328
      -0.0000012710        0.0001239084       -0.0000934305
      -0.0000297339        0.0000138895       -0.0000570742
       0.0001796278        0.0002605527        0.0000765843
      -0.0000330823        0.0000875446        0.0000448753
       0.0001307677        0.0001609446        0.0000074622
       0.0000195846        0.0000328746        0.0001288556
       0.0000093871        0.0000677596       -0.0000449297
       0.0000125170        0.0002211785       -0.0000624650
       0.0000122132        0.0002144982        0.0001711008
      -0.0010937431        0.0000777949       -0.0000592428
       0.0002070496       -0.0000887534       -0.0001583657
      -0.0001744211        0.0001934704        0.0000977694
      -0.0004379690        0.0000907928       -0.0002780597
       0.0000960588        0.0000120093        0.0000411424
      -0.0000179177       -0.0001542936       -0.0001759743
       0.0000090821       -0.0015650823       -0.0006386203
      -0.0000715815       -0.0000346712       -0.0000870379
      -0.0002674240        0.0000130791        0.0004360399
      -0.0011648872        0.0001980130        0.0007277540
      -0.0001182429        0.0000608309        0.0001699814
      -0.0000149402        0.0003267377        0.0000338566
       0.0009994792        0.0001592792        0.0004359452
      -0.0000304602        0.0000047687        0.0000447046
       0.0000223359       -0.0000000449       -0.0002593002
       0.0005780121        0.0005370709       -0.0002577146
       0.0000694090       -0.0000048575       -0.0000962462
      -0.0001893428        0.0001752815        0.0002149923
      -0.0000541931        0.0000194744       -0.0000072747
      -0.0001096583       -0.0001640119        0.0000019042
       0.0003087586       -0.0001647783        0.0000969805
       0.0000513470       -0.0001196235        0.0000661496
       0.0002519285        0.0001229628        0.0001175125
       0.0000006969       -0.0000535203        0.0003291227
       0.0002768296       -0.0000608048        0.0001528042
       0.0001642549        0.0000240328       -0.0001264673
      -0.0000988025        0.0001531048       -0.0000620460
       0.0002058502        0.0000111640        0.0001465974
      -0.0001714784        0.0000112510        0.0001990428
      -0.0000578820       -0.0001315124        0.0001475812
       0.0002263104        0.0001326202        0.0000590985
      -0.0002044448       -0.0000818765        0.0000476140
      -0.0001787669        0.0000214971        0.0001196633
      -0.0001279492        0.0000401668        0.0001171589
      -0.0000280176       -0.0001620179       -0.0000400167
       0.0000028647       -0.0000770974       -0.0000275491
      -0.0000778436        0.0001920690       -0.0000609607
      -0.0001169012        0.0000629959       -0.0000792768
       0.0000507332       -0.0002353867       -0.0002124455
      -0.0000399329        0.0000507563       -0.0000779025